c This is QMaxSAT 2017 based on 14.07
c This is Glucose 3.0
c This is MiniSat 2.2.0
c WARNING: for repeatability, setting FPU to use double precision
c card = mrwto, comp = 0, pmodel = 0, narr = 6, mct = 29, verb = 0
cr firstCPXsol 0 0 0
c top = 167313
c |  Number of variables:    4024726                                          |
c |  Number of clauses:      300507072                                        |
c |  Weight of hard clauses: 167313                                           |
c |  Number of soft clauses: 4872                                             |
c |  Number of unit soft clauses: 4872                                        |
c |  Maximum Cardinality (by unit): 1003872      (1003872     )               |
c last restart ## conflicts  :  111 416019 
o 1530 | cpuTime 50.225 s
c Sum of weights = 167312
c A number of soft clauses remained = 812
c MRWTO encoding for Pseudo-Boolean Constraints
c sizeMax=1530
c No.0 Divisor=12	generated by pow1
c No.1 Divisor=12	generated by pow1
c No.2 Divisor=12	generated by pow1
c p0= 12	p1= 12	p2= 12	
c number of digits = 4
c linkingVar[0].size = 12, linkingVar[1].size = 12, linkingVar[2].size = 11, linkingVar[3].size = 1, 
c Pseudo-Boolean Constraints: 18933 variables and 184066 clauses
c Sum of weights = 167312
c A number of soft clauses remained = 812
c MRWTO encoding for Pseudo-Boolean Constraints
c sizeMax=1530
c No.0 Divisor=12	generated by pow1
c No.1 Divisor=12	generated by pow1
c No.2 Divisor=12	generated by pow1
c p0= 12	p1= 12	p2= 12	
c number of digits = 4
c linkingVar[0].size = 12, linkingVar[1].size = 12, linkingVar[2].size = 11, linkingVar[3].size = 1, 
c Pseudo-Boolean Constraints: 18933 variables and 184066 clauses
c Sum of weights = 167312
c A number of soft clauses remained = 812
c MRWTO encoding for Pseudo-Boolean Constraints
c sizeMax=1530
c No.0 Divisor=12	generated by pow1
c No.1 Divisor=12	generated by pow1
c No.2 Divisor=12	generated by pow1
c p0= 12	p1= 12	p2= 12	
c number of digits = 4
c linkingVar[0].size = 12, linkingVar[1].size = 12, linkingVar[2].size = 11, linkingVar[3].size = 1, 
c Pseudo-Boolean Constraints: 18933 variables and 184066 clauses
c Sum of weights = 167312
c A number of soft clauses remained = 812
c MRWTO encoding for Pseudo-Boolean Constraints
c sizeMax=1530
c No.0 Divisor=12	generated by pow1
c No.1 Divisor=12	generated by pow1
c No.2 Divisor=12	generated by pow1
c p0= 12	p1= 12	p2= 12	
c number of digits = 4
c linkingVar[0].size = 12, linkingVar[1].size = 12, linkingVar[2].size = 11, linkingVar[3].size = 1, 
c Pseudo-Boolean Constraints: 18933 variables and 184066 clauses
c Sum of weights = 167312
c A number of soft clauses remained = 812
c MRWTO encoding for Pseudo-Boolean Constraints
c sizeMax=1530
c No.0 Divisor=12	generated by pow1
c No.1 Divisor=12	generated by pow1
c No.2 Divisor=12	generated by pow1
c p0= 12	p1= 12	p2= 12	
c number of digits = 4
c linkingVar[0].size = 12, linkingVar[1].size = 12, linkingVar[2].size = 11, linkingVar[3].size = 1, 
c Pseudo-Boolean Constraints: 18933 variables and 184066 clauses
c Sum of weights = 167312
c A number of soft clauses remained = 812
c MRWTO encoding for Pseudo-Boolean Constraints
c sizeMax=1530
c No.0 Divisor=12	generated by pow1
c No.1 Divisor=12	generated by pow1
c No.2 Divisor=12	generated by pow1
c p0= 12	p1= 12	p2= 12	
c number of digits = 4
c linkingVar[0].size = 12, linkingVar[1].size = 12, linkingVar[2].size = 11, linkingVar[3].size = 1, 
c Pseudo-Boolean Constraints: 18933 variables and 184066 clauses
c last restart ## conflicts  :  38 418478 
o 1392 | cpuTime 51.9487 s
c last restart ## conflicts  :  119 423382 
o 1274 | cpuTime 221.909 s
c last restart ## conflicts  :  482 476183 
o 1169 | cpuTime 258.459 s
c last restart ## conflicts  :  357 448317 
o 1114 | cpuTime 533.249 s
s UNKNOWN
c Search is stopped by a limit (maybe time-limit)
cr positiVarArr: [ | 14@1(1->14) | 153@1(6->8) | 213@1(8->10) | 262@1(10->1) | 383@1(14->6) | 868@2(1->27) | 879@2(2->9) | 1074@2(9->1) | 1153@2(11->22) | 1208@2(13->19) | 1289@2(16->13) | 1374@2(19->11) | 1452@2(22->2) | 1611@2(27->16) | 1697@3(1->15) | 1881@3(7->25) | 2095@3(15->7) | 2164@3(17->18) | 2176@3(18->1) | 2395@3(25->17) | 2547@4(1->24) | 2865@4(12->23) | 3162@4(23->1) | 3202@4(24->12) | 3393@5(1->29) | 3426@5(3->4) | 3472@5(4->21) | 3916@5(20->1) | 3964@5(21->20) | 4179@5(29->3) | 4233@6(1->28) | 4347@6(5->26) | 4931@6(26->1) | 4993@6(28->5) | ]
cr the 1-th chain: [ 1->14->6->8->10->1 ] (#non-depot=4) {#cumul.=5}
cr the 2-th chain: [ 1->27->16->13->19->11->22->2->9->1 ] (#non-depot=8) {#cumul.=13}
cr the 3-th chain: [ 1->15->7->25->17->18->1 ] (#non-depot=5) {#cumul.=18}
cr the 4-th chain: [ 1->24->12->23->1 ] (#non-depot=3) {#cumul.=21}
cr the 5-th chain: [ 1->29->3->4->21->20->1 ] (#non-depot=5) {#cumul.=26}
cr the 6-th chain: [ 1->28->5->26->1 ] (#non-depot=3) {#cumul.=29}
c Latest Answer = 0 by 5 loops
c restarts              : 7575
c conflicts             : 1153291        (321 /sec)
c decisions             : 19359478       (0.00 % random) (5384 /sec)
c propagations          : 14743604307    (4100062 /sec)
c conflict literals     : 209555922      (20.30 % deleted)
c Memory used           : 20304.00 MB
c CPU time              : 3595.95 s
